language ESSENCE' 1.0
letting AssignmentMatrix be [[0, 0, 0, 0, 0, 0, 0, 0, 0, 0, 0, 0, 0, 1, 1, 1, 1, 1, 1, 1, 1, 1, 1], 
[0, 0, 0, 0, 1, 1, 0, 0, 0, 1, 0, 0, 0, 0, 0, 0, 0, 0, 0, 1, 1, 1, 1], 
[0, 0, 0, 0, 0, 0, 0, 0, 0, 0, 0, 0, 0, 0, 0, 0, 0, 0, 0, 0, 0, 0, 0], 
[1, 0, 0, 0, 0, 0, 0, 1, 1, 0, 0, 1, 0, 0, 0, 0, 0, 0, 0, 0, 0, 0, 0], 
[0, 1, 0, 0, 0, 0, 1, 0, 0, 0, 0, 0, 0, 0, 0, 0, 0, 0, 0, 0, 0, 0, 0]]
letting CPU be [4, 4, 6, 59, 2, 2, 4, 4, 4, 4, 8, 4, 4, 2, 2, 2, 2, 2, 2, 4, 4, 4, 4]
letting Memory be [7500, 7500, 488107, 488043, 3750, 3750, 7500, 7500, 7500, 7500, 488015, 7500, 976000, 3750, 3750, 3750, 3750, 3750, 3750, 15000, 15000, 15000, 15000]
letting Price be [210, 210, 5, 0, 116, 126, 210, 210, 210, 210, 1, 210, 0, 116, 116, 116, 116, 116, 116, 350, 350, 350, 350]
letting Storage be [2000, 2000, 12103, 6037, 2000, 2000, 2000, 2000, 2000, 2000, 12026, 2000, 12032, 2000, 2000, 2000, 2000, 2000, 2000, 4000, 4000, 4000, 4000]
letting VMType be [341, 341, 1, 1, 433, 477, 341, 341, 341, 341, 1, 341, 1, 433, 433, 433, 433, 433, 433, 316, 316, 316, 316]
